56 61 77 76 16 10 82 4 69 14 15 71 70 53 39 31 57 25 17 54 49 1 34 95 3 67 47 11 34 71 32 51 31 67 19 66 55 35 26 62 22 21 64 19 98 33 44 69 53 29 38 59 40 17 56 23 100 1 4 72 15 52 6 99 43 82 60 41 43 22 32 88 1 29 11 15 84 14 85 28 94 76 100 26 54 5 19 46 80 29 45 21 51 89 43 36 37 75 76 10 